17	4
26	23	19	26	
0	0	0	0	0	3	2	3	4	
10	8	1	10	6	1	17	
9	4	6	2	9	2	9	10	
5	2	4	10	10	3	5	7	8	
1	4	1	5	3	3	6	15	17	
25	4	1	3	9	2	14	17	
225	9	7	2	4	2	11	12	
125	6	5	1	8	1	17	
225	4	3	5	5	1	17	
100	9	2	9	5	2	13	17	
200	10	10	2	9	3	14	17	17	
175	9	6	10	3	3	14	16	17	
2	8	2	4	4	1	17	
3	4	9	6	6	1	17	
1	8	7	2	2	2	17	17	
8	9	10	1	5	1	17	
0	0	0	0	0	0	
